(set-logic ALL)
(declare-fun seed0_T_1 () Bool)
(declare-fun seed0_T_2 () Bool)
(declare-fun seed0_var_0xINPUT_103305 () String)
(assert (and (or (= seed0_T_1 (= "QcvDEB7PGX" seed0_var_0xINPUT_103305)) (not (str.suffixof (str.++ seed0_var_0xINPUT_103305 "le") (str.++ seed0_var_0xINPUT_103305 "Ncujbf")))) (or (= seed0_T_2 (not seed0_T_1)) (and (str.<= (str.++ seed0_var_0xINPUT_103305 "5AV7") (str.++ seed0_var_0xINPUT_103305 "EL")) (str.suffixof (str.++ seed0_var_0xINPUT_103305 "kP") (str.++ seed0_var_0xINPUT_103305 "bYLXnW5AKImdorQ")))) (or seed0_T_2 (str.contains (str.++ seed0_var_0xINPUT_103305 "dMYlkAneWr9uZbBL48xp") (str.++ seed0_var_0xINPUT_103305 "dA58")))))
(check-sat)
(exit)